90 362950
60 75 24 39 35 67 62 11 8 37 2 90 42 3 78 22 65 13 84 30 71 55 77 74 41 1 66 58 82 81 40 34 70 26 56 16 4 38 52 23 76 73 57 5 25 18 51 50 88 63 31 21 48 20 46 61 69 54 59 44 85 49 43 86 6 89 10 64 68 32 17 33 9 27 14 28 36 79 15 87 72 47 53 83 29 12 7 80 45 19 
